p edge 27 42
e 1 2
e 1 4
e 1 5
e 1 11
e 1 18
e 1 19
e 1 24
e 1 27
e 2 7
e 2 13
e 2 16
e 2 17
e 2 22
e 2 23
e 3 8
e 3 14
e 3 17
e 4 6
e 4 8
e 4 14
e 4 16
e 4 26
e 5 6
e 5 7
e 5 9
e 5 14
e 5 15
e 5 20
e 5 21
e 5 25
e 6 11
e 6 13
e 6 17
e 6 23
e 7 8
e 7 12
e 7 18
e 7 24
e 8 15
e 9 10
e 9 13
e 10 14
